(set-option :produce-models true)
(set-option :opt.priority lex)
(declare-fun publish_a_dataset () Bool) 
(declare-fun sign_up_for_an_account () Bool) 
(declare-fun sign_up_via_github_or_google () Bool) 
(declare-fun know_what_do_next_after_signing_up () Bool) 
(declare-fun invite_someone_to_join_the_platform () Bool) 
(declare-fun import_my_data_package_into_the_registry () Bool) 
(declare-fun configure_my_client () Bool) 
(declare-fun use_a_publish_command_to_update_a_data_package_that_is_already_in_the_registry () Bool) 
(declare-fun unpublish_a_data_package () Bool) 
(declare-fun permanently_delete_a_data_package () Bool) 
(declare-fun validate_the_data_i_am_about_to_publish_to_the_registry () Bool) 
(declare-fun data_to_be_validated_when_i_publish_it () Bool) 
(declare-fun know_that_the_data_i_am_downloading_is_good_and_can_be_relied_on () Bool) 
(declare-fun publish_a_data_package_where_its_resource_data_is_stored_on_my_servers_but_the_registry_caches_a_copy_of_that_data () Bool) 
(declare-fun be_able_to_get_the_data_for_a_data_package_even_if_the_original_data_has_been_moved_or_removed () Bool) 
(declare-fun publish_a_data_package_in_the_ui () Bool) 
(declare-fun create_a_data_package_in_the_ui () Bool) 
(declare-fun be_able_to_restore_the_deleted_data_package_via_cli () Bool) 
(declare-fun undelete_the_deleted_data_packages () Bool) 
(declare-fun be_able_to_preview_the_views_of_the_current_data_package_using_cli_prior_to_publishing () Bool) 
(declare-fun view_a_data_package_online () Bool) 
(declare-fun show_the_world_how_my_published_data_is () Bool) 
(declare-fun view_the_data_package () Bool) 
(declare-fun preview_a_datapackage_i_have_prepared () Bool) 
(declare-fun see_how_much_the_data_has_been_downloaded () Bool) 
(declare-fun see_real_examples_of_published_packages () Bool) 
(declare-fun see_some_example_data_packages_quickly () Bool) 
(declare-fun search_data_packages () Bool) 
(declare-fun search_based_on_description_of_data_package () Bool) 
(declare-fun download_the_data_package_in_one_file () Bool) 
(declare-fun use_data_package_as_a_node_lib_in_my_project () Bool) 
(declare-fun load_a_data_package_from_r () Bool) 
(declare-fun download_a_data_package () Bool) 
(declare-fun update_previously_downloaded_data_package () Bool) 
(declare-fun download_a_datapackage_s_data_one_coherent_sqlite_database () Bool) 
(declare-fun compare_different_versions_of_some_datapackage_locally () Bool) 
(declare-fun be_able_to_install_multiple_versions_of_the_same_datapackage_separately () Bool) 
(declare-fun list_all_datapackages_requirements_for_my_project_in_the_file_and_pin_the_exact_versions_of_any_datapackage_that_my_project_depends_on () Bool) 
(declare-fun tag_datapackage_to_create_a_snapshot_of_data_on_the_registry_server () Bool) 
(declare-fun be_warned_that_a_tag_exists_when_i_try_to_overwrite_it () Bool) 
(declare-fun be_able_to_overwrite_the_previously_tagged_datapackage () Bool) 
(declare-fun version_my_data_package_and_keep_multiple_versions_around_including_older_versions () Bool) 
(declare-fun be_able_to_get_access_to_a_previous_version_i_tagged () Bool) 
(declare-fun know_full_details_of_how_the_data_package_schema_has_changed () Bool) 
(declare-fun get_a_sense_of_the_age_of_the_datapackage_that_i_have_downloaded_before () Bool) 
(declare-fun view_a_datapackage_at_a_particular_version_online () Bool) 
(declare-fun download_a_data_package_at_a_particular_version () Bool) 
(declare-fun be_notified_of_changes_to_a_package_i_care_about () Bool) 
(declare-fun see_how_active_the_site_is () Bool) 
(declare-fun browse_and_find_publishers () Bool) 
(declare-fun see_a_publisher_s_profile () Bool) 
(declare-fun view_a_publisher_s_profile () Bool) 
(declare-fun search_among_all_data_packages_owned_by_a_publisher () Bool) 
(declare-fun edit_my_profile () Bool) 
(declare-fun invite_an_existing_user () Bool) 
(declare-fun invite_someone_using_their_email_to_sign_up_and_become_a_member_of_my_publisher () Bool) 
(declare-fun remove_someone_from_membership_in_my_publisher () Bool) 
(declare-fun view_all_the_people_in_my_organization_and_what_roles_they_have () Bool) 
(declare-fun make_a_user_an_owner () Bool) 
(declare-fun remove_a_user_as_an_owner () Bool) 
(declare-fun set_key_configuration_parameters_for_my_site_deployment () Bool) 
(declare-fun see_key_metrics_about_usage_such_as_users_api_usage_downloads () Bool) 
(declare-fun have_a_pricing_plan_and_billing_system () Bool) 
(declare-fun know_if_this_site_has_a_pricing_plan_and_what_the_prices_are () Bool) 
(declare-fun sign_up_for_a_given_pricing_plan () Bool) 
(declare-fun have_private_data_packages () Bool) 
(declare-fun publisher () Bool) 
(assert publisher) 
(declare-fun visitor () Bool) 
(assert visitor) 
(declare-fun admin () Bool) 
(assert admin) 
(declare-fun consumer () Bool) 
(assert consumer) 
(declare-fun developer () Bool) 
(assert developer) 
(declare-fun data_analyst () Bool) 
(assert data_analyst) 
(declare-fun web_developer () Bool) 
(assert web_developer) 
(declare-fun owner () Bool) 
(assert owner) 
(assert (=> publisher(or publish_a_dataset publish_a_dataset sign_up_for_an_account know_what_do_next_after_signing_up import_my_data_package_into_the_registry configure_my_client use_a_publish_command_to_update_a_data_package_that_is_already_in_the_registry unpublish_a_data_package permanently_delete_a_data_package validate_the_data_i_am_about_to_publish_to_the_registry data_to_be_validated_when_i_publish_it publish_a_data_package_where_its_resource_data_is_stored_on_my_servers_but_the_registry_caches_a_copy_of_that_data publish_a_data_package_in_the_ui create_a_data_package_in_the_ui be_able_to_restore_the_deleted_data_package_via_cli undelete_the_deleted_data_packages be_able_to_preview_the_views_of_the_current_data_package_using_cli_prior_to_publishing show_the_world_how_my_published_data_is preview_a_datapackage_i_have_prepared see_real_examples_of_published_packages tag_datapackage_to_create_a_snapshot_of_data_on_the_registry_server be_warned_that_a_tag_exists_when_i_try_to_overwrite_it be_able_to_overwrite_the_previously_tagged_datapackage version_my_data_package_and_keep_multiple_versions_around_including_older_versions be_able_to_get_access_to_a_previous_version_i_tagged know_if_this_site_has_a_pricing_plan_and_what_the_prices_are sign_up_for_a_given_pricing_plan have_private_data_packages )))
(assert (=> visitor(or sign_up_via_github_or_google )))
(assert (=> admin(or invite_someone_to_join_the_platform set_key_configuration_parameters_for_my_site_deployment see_key_metrics_about_usage_such_as_users_api_usage_downloads have_a_pricing_plan_and_billing_system )))
(assert (=> consumer(or know_that_the_data_i_am_downloading_is_good_and_can_be_relied_on be_able_to_get_the_data_for_a_data_package_even_if_the_original_data_has_been_moved_or_removed view_a_data_package_online view_the_data_package see_how_much_the_data_has_been_downloaded see_some_example_data_packages_quickly search_data_packages search_based_on_description_of_data_package download_the_data_package_in_one_file load_a_data_package_from_r download_a_datapackage_s_data_one_coherent_sqlite_database know_full_details_of_how_the_data_package_schema_has_changed get_a_sense_of_the_age_of_the_datapackage_that_i_have_downloaded_before view_a_datapackage_at_a_particular_version_online download_a_data_package_at_a_particular_version be_notified_of_changes_to_a_package_i_care_about see_how_active_the_site_is browse_and_find_publishers see_a_publisher_s_profile view_a_publisher_s_profile search_among_all_data_packages_owned_by_a_publisher )))
(assert (=> developer(or use_data_package_as_a_node_lib_in_my_project list_all_datapackages_requirements_for_my_project_in_the_file_and_pin_the_exact_versions_of_any_datapackage_that_my_project_depends_on )))
(assert (=> data_analyst(or download_a_data_package update_previously_downloaded_data_package compare_different_versions_of_some_datapackage_locally )))
(assert (=> web_developer(or be_able_to_install_multiple_versions_of_the_same_datapackage_separately )))
(assert (=> owner(or edit_my_profile invite_an_existing_user invite_someone_using_their_email_to_sign_up_and_become_a_member_of_my_publisher remove_someone_from_membership_in_my_publisher view_all_the_people_in_my_organization_and_what_roles_they_have make_a_user_an_owner remove_a_user_as_an_owner )))
(minimize unsat_requirements)
(minimize sat_tasks)
(check-sat)
(get-objectives)
(load-objective-model 1)
(get-model)
(exit)
